10
0 200 5
0 150 6
10 170 5
20 180 6
0 160 4
15 190 7
5 140 5
30 210 6
25 220 5
40 230 6
0 19 33 27 30 24 38 29 41 35 47
22 0 18 29 23 31 26 28 24 30 33
17 21 0 20 26 19 25 32 27 23 34
25 28 22 0 17 24 29 21 26 30 28
21 19 26 18 0 22 24 27 20 31 25
14 30 16 25 21 0 19 23 29 21 30
23 17 24 20 26 15 0 18 22 25 19
28 26 29 23 24 20 16 0 15 27 24
24 21 18 30 25 22 19 16 0 14 20
19 23 27 21 31 18 25 29 17 0 16
26 29 33 26 28 30 21 22 23 19 0
